 vasp.5.4.4.18Apr17-6-g9f103f2a35 (build Apr 27 2017 15:58:20) complex

 executed on       CrayXC-Intel16 date 2020.05.25  17:49:58

 INCAR:
 POTCAR:    PAW_PBE O 08Apr2002
 POTCAR:    PAW_PBE V_pv 07Sep2000
 POTCAR:    PAW_PBE Bi_d 06Sep2000

 POTCAR:    PAW_PBE O 08Apr2002
   VRHFIN =O: s2p4

   TITEL  = PAW_PBE O 08Apr2002
   POMASS =   16.000; ZVAL   =    6.000    mass and valenz
   ENMAX  =  400.000; ENMIN  =  300.000 eV

 POTCAR:    PAW_PBE V_pv 07Sep2000
   VRHFIN =V: p6 d4 s1

   TITEL  = PAW_PBE V_pv 07Sep2000
   POMASS =   50.941; ZVAL   =   11.000    mass and valenz
   ENMAX  =  263.673; ENMIN  =  197.755 eV

 POTCAR:    PAW_PBE Bi_d 06Sep2000
   VRHFIN =Bi:

   TITEL  = PAW_PBE Bi_d 06Sep2000
   POMASS =  208.980; ZVAL   =   15.000    mass and valenz
   ENMAX  =  242.839; ENMIN  =  182.129 eV

 WARNING: PSMAXN for non-local potential too small
          PSMAXN should be >   15.7905836300310       NTYP=           3

  PAW_PBE O 08Apr2002                   :
  PAW_PBE V_pv 07Sep2000                :
  PAW_PBE Bi_d 06Sep2000                :

 POSCAR: New structure
  positions in direct lattice
  velocities in cartesian coordinates
 exchange correlation table for  LEXCH =       14
   RHO(1)=    0.500       N(1)  =     2000
   RHO(2)=  100.500       N(2)  =     4000

 ion  position               nearest neighbor table
   1  0.702  0.342  0.636-   9 1.69  11 2.40  12 2.43
   2  0.206  0.066  0.864-   9 1.69  11 2.40  12 2.43
   3  0.842  0.706  0.640-  10 1.69  12 2.40  11 2.43
   4  0.566  0.202  0.860-  10 1.69  12 2.40  11 2.43
   5  0.298  0.658  0.364-  10 1.69  12 2.40  11 2.43
   6  0.794  0.934  0.136-  10 1.69  12 2.40  11 2.43
   7  0.158  0.294  0.360-   9 1.69  11 2.40  12 2.43
   8  0.434  0.798  0.140-   9 1.69  11 2.40  12 2.43
   9  0.375  0.125  0.250-   7 1.69   8 1.69   2 1.69   1 1.69
  10  0.625  0.875  0.750-   3 1.69   4 1.69   5 1.69   6 1.69
  11  0.875  0.625  0.250-   8 2.40   7 2.40   2 2.40   1 2.40   6 2.43   3 2.43   5 2.43   4 2.43
                            12 3.81  12 3.81  12 3.81  12 3.81
  12  0.125  0.375  0.750-   4 2.40   3 2.40   5 2.40   6 2.40   1 2.43   2 2.43   8 2.43   7 2.43
                            11 3.81  11 3.81  11 3.81  11 3.81

  LATTYP: Found a body centered tetragonal cell.
 ALAT       =     5.0442127888
 C/A-ratio  =     2.2605660128

  Lattice vectors:

 A1 = (   6.7251293189,  -0.0223517798,   0.0000007034)
 A2 = (   2.9618378296,   6.0378291321,  -0.0000007451)
 A3 = (  -4.8434835850,  -3.0077378303,   3.5667974330)

Analysis of symmetry for initial positions (statically):
 Subroutine PRICEL returns:
 Original cell was already a primitive cell.

 Routine SETGRP: Setting up the symmetry group for a
 body centered tetragonal supercell.

 Subroutine GETGRP returns: Found  8 space group operations
 (whereof  2 operations were pure point group operations)
 out of a pool of 16 trial point group operations.

The static configuration has the point symmetry S_2 .
 The point group associated with its full space group is C_4h.

Analysis of symmetry for dynamics (positions and initial velocities):
 Subroutine PRICEL returns:
 Original cell was already a primitive cell.

 Routine SETGRP: Setting up the symmetry group for a
 body centered tetragonal supercell.

 Subroutine GETGRP returns: Found  8 space group operations
 (whereof  2 operations were pure point group operations)
 out of a pool of 16 trial point group operations.

The dynamic configuration has the point symmetry S_2 .
 The point group associated with its full space group is C_4h.

 Subroutine INISYM returns: Found  8 space group operations
 (whereof  2 operations are pure point group operations),
 and found     1 'primitive' translations

 KPOINTS: Automatic generation

Automatic generation of k-mesh.
Space group operators:
 irot       det(A)        alpha          n_x          n_y          n_z        tau_x        tau_y        tau_z
    1     1.000000     0.000001     1.000000     0.000000     0.000000     0.000000     0.000000     0.000000
    2    -1.000000     0.000001     1.000000     0.000000     0.000000     0.000000     0.000000     0.000000
    3     1.000000    90.000000    -0.849527    -0.527545     0.000000     0.500000    -0.000000     0.000000
    4    -1.000000    90.000000    -0.849527    -0.527545     0.000000     0.500000    -0.000000     0.000000
    5     1.000000   180.000000     0.849527     0.527545    -0.000000     0.500000     0.000000     0.500000
    6    -1.000000   180.000000     0.849527     0.527545    -0.000000     0.500000     0.000000     0.500000
    7     1.000000    90.000000     0.849527     0.527545    -0.000000     0.500000     0.500000     0.500000
    8    -1.000000    90.000000     0.849527     0.527545    -0.000000     0.500000     0.500000     0.500000

 Subroutine IBZKPT returns following result:

 Found     14 irreducible k-points:

 Following reciprocal coordinates:
            Coordinates               Weight
  0.000000  0.000000  0.000000      1.000000
  0.250000  0.000000 -0.000000      8.000000
  0.500000  0.000000 -0.000000      4.000000
  0.250000  0.250000  0.000000      8.000000
  0.500000  0.250000  0.000000      8.000000
 -0.250000  0.250000  0.000000      4.000000
  0.250000  0.500000  0.000000      8.000000
  0.500000  0.500000  0.000000      2.000000
  0.250000  0.250000  0.250000      2.000000
 -0.250000  0.250000  0.250000      4.000000
  0.500000  0.500000  0.250000      4.000000
 -0.250000  0.500000  0.250000      8.000000
 -0.250000 -0.250000  0.250000      2.000000
  0.500000  0.500000  0.500000      1.000000

 Following cartesian coordinates:
            Coordinates               Weight
  0.000000  0.000000  0.000000      1.000000
  0.037113 -0.018206  0.035045      8.000000
  0.074227 -0.036412  0.070091      4.000000
  0.037251  0.023132  0.070091      8.000000
  0.074364  0.004926  0.105136      8.000000
 -0.036976  0.059544 -0.000000      4.000000
  0.037388  0.064471  0.105136      8.000000
  0.074502  0.046265  0.140182      2.000000
  0.037251  0.023132  0.140182      2.000000
 -0.036976  0.059544  0.070091      4.000000
  0.074502  0.046265  0.210273      4.000000
 -0.036839  0.100882  0.105136      8.000000
 -0.037251 -0.023132  0.000000      2.000000
  0.074502  0.046265  0.280364      1.000000

 TETIRR: Found    117 inequivalent tetrahedra from      384

 Subroutine IBZKPT_HF returns following result:

 Found     64 k-points in 1st BZ
 the following     64 k-points will be used (e.g. in the exchange kernel)
 Following reciprocal coordinates:   # in IRBZ
  0.000000  0.000000  0.000000    0.01562500   1 t-inv F
  0.250000  0.000000 -0.000000    0.01562500   2 t-inv F
  0.500000  0.000000 -0.000000    0.01562500   3 t-inv F
  0.250000  0.250000  0.000000    0.01562500   4 t-inv F
  0.500000  0.250000  0.000000    0.01562500   5 t-inv F
 -0.250000  0.250000  0.000000    0.01562500   6 t-inv F
  0.250000  0.500000  0.000000    0.01562500   7 t-inv F
  0.500000  0.500000  0.000000    0.01562500   8 t-inv F
  0.250000  0.250000  0.250000    0.01562500   9 t-inv F
 -0.250000  0.250000  0.250000    0.01562500  10 t-inv F
  0.500000  0.500000  0.250000    0.01562500  11 t-inv F
 -0.250000  0.500000  0.250000    0.01562500  12 t-inv F
 -0.250000 -0.250000  0.250000    0.01562500  13 t-inv F
  0.500000  0.500000  0.500000    0.01562500  14 t-inv F
 -0.250000 -0.000000  0.000000    0.01562500   2 t-inv F
  0.250000  0.000000 -0.250000    0.01562500   2 t-inv F
 -0.250000 -0.000000  0.250000    0.01562500   2 t-inv F
  0.000000  0.250000 -0.250000    0.01562500   2 t-inv F
 -0.000000 -0.250000  0.250000    0.01562500   2 t-inv F
  0.000000  0.250000 -0.000000    0.01562500   2 t-inv F
 -0.000000 -0.250000  0.000000    0.01562500   2 t-inv F
  0.500000  0.000000 -0.500000    0.01562500   3 t-inv F
  0.000000  0.500000 -0.500000    0.01562500   3 t-inv F
  0.000000  0.500000 -0.000000    0.01562500   3 t-inv F
 -0.250000 -0.250000 -0.000000    0.01562500   4 t-inv F
  0.500000 -0.000000 -0.250000    0.01562500   4 t-inv F
 -0.500000  0.000000  0.250000    0.01562500   4 t-inv F
  0.250000  0.250000 -0.500000    0.01562500   4 t-inv F
 -0.250000 -0.250000  0.500000    0.01562500   4 t-inv F
 -0.000000  0.500000 -0.250000    0.01562500   4 t-inv F
  0.000000 -0.500000  0.250000    0.01562500   4 t-inv F
 -0.500000 -0.250000  0.000000    0.01562500   5 t-inv F
  0.750000  0.000000 -0.500000    0.01562500   5 t-inv F
 -0.750000  0.000000  0.500000    0.01562500   5 t-inv F
  0.250000  0.500000 -0.750000    0.01562500   5 t-inv F
 -0.250000 -0.500000  0.750000    0.01562500   5 t-inv F
  0.000000  0.750000 -0.250000    0.01562500   5 t-inv F
  0.000000 -0.750000  0.250000    0.01562500   5 t-inv F
  0.250000 -0.250000 -0.000000    0.01562500   6 t-inv F
 -0.000000 -0.000000  0.250000    0.01562500   6 t-inv F
  0.000000  0.000000 -0.250000    0.01562500   6 t-inv F
 -0.250000 -0.500000  0.000000    0.01562500   7 t-inv F
  0.750000  0.000000 -0.250000    0.01562500   7 t-inv F
 -0.750000  0.000000  0.250000    0.01562500   7 t-inv F
  0.500000  0.250000 -0.750000    0.01562500   7 t-inv F
 -0.500000 -0.250000  0.750000    0.01562500   7 t-inv F
  0.000000  0.750000 -0.500000    0.01562500   7 t-inv F
  0.000000 -0.750000  0.500000    0.01562500   7 t-inv F
  1.000000 -0.000000 -0.500000    0.01562500   8 t-inv F
 -0.250000 -0.250000 -0.250000    0.01562500   9 t-inv F
  0.250000 -0.250000 -0.250000    0.01562500  10 t-inv F
  0.250000 -0.250000  0.250000    0.01562500  10 t-inv F
 -0.250000  0.250000 -0.250000    0.01562500  10 t-inv F
 -0.500000 -0.500000 -0.250000    0.01562500  11 t-inv F
  1.250000 -0.250000 -0.500000    0.01562500  11 t-inv F
 -1.250000  0.250000  0.500000    0.01562500  11 t-inv F
  0.250000 -0.500000 -0.250000    0.01562500  12 t-inv F
  0.500000 -0.250000  0.250000    0.01562500  12 t-inv F
 -0.500000  0.250000 -0.250000    0.01562500  12 t-inv F
  0.500000 -0.250000 -0.500000    0.01562500  12 t-inv F
 -0.500000  0.250000  0.500000    0.01562500  12 t-inv F
 -0.250000  0.500000 -0.500000    0.01562500  12 t-inv F
  0.250000 -0.500000  0.500000    0.01562500  12 t-inv F
  0.250000  0.250000 -0.250000    0.01562500  13 t-inv F

 SYSTEM =  ZnO_Bulk
 POSCAR =  New structure

 Startparameter for this run:
   NWRITE =      2    write-flag & timer
   PREC   = accura    normal or accurate (medium, high low for compatibility)
   ISTART =      1    job   : 0-new  1-cont  2-samecut
   ICHARG =      0    charge: 1-file 2-atom 10-const
   ISPIN  =      1    spin polarized calculation?
   LNONCOLLINEAR =      F non collinear calculations
   LSORBIT =      F    spin-orbit coupling
   INIWAV =      1    electr: 0-lowe 1-rand  2-diag
   LASPH  =      T    aspherical Exc in radial PAW
   METAGGA=      F    non-selfconsistent MetaGGA calc.

 Electronic Relaxation 1
   ENCUT  =  950.0 eV  69.82 Ry    8.36 a.u.  16.90 16.90 16.90*2*pi/ulx,y,z
   ENINI  =  950.0     initial cutoff
   ENAUG  =  605.4 eV  augmentation charge cutoff
   NELM   =    200;   NELMIN=  2; NELMDL=  0     # of ELM steps
   EDIFF  = 0.1E-07   stopping-criterion for ELM
   LREAL  =      F    real-space projection
[...]
   -.458E-03 -.119E-03 0.723E-03   0.108E-12 -.460E-15 -.795E-13   0.892E-15 0.358E-14 -.954E-17   0.914E-10 -.126E-10 -.614E-10

 POSITION                                       TOTAL-FORCE (eV/Angst)
      2.65059      0.13406      2.26769        -0.000155     -0.000110     -0.000286
     -2.60725     -2.20642      3.08251        -0.000167     -0.000090      0.000286
      4.65023      2.31766      2.28238        -0.000312      0.000143     -0.000012
      0.23660     -1.38229      3.06782        -0.000010     -0.000343      0.000012
      2.19289      2.87368      1.29911         0.000155      0.000110      0.000286
      7.45073      5.21416      0.48429         0.000167      0.000090     -0.000286
      0.19325      0.69008      1.28442         0.000312     -0.000143      0.000012
      4.60689      4.39003      0.49898         0.000010      0.000343     -0.000012
      1.68128     -0.00559      0.89170         0.000000     -0.000000      0.000000
      3.16220      3.01333      2.67510         0.000000      0.000000      0.000000
      6.52477      3.00215      0.89170         0.000000      0.000000      0.000000
     -1.68128      0.00559      2.67510         0.000000      0.000000      0.000000
    total drift:                               -0.000458     -0.000119      0.000723

  FREE ENERGIE OF THE ION-ELECTRON SYSTEM (eV)
  free  energy   TOTEN  =      -163.18356912 eV

  energy  without entropy=     -163.18356912  energy(sigma->0) =     -163.18356912

 Quasi-Newton relaxation of ions (Broydens 2nd method)
  g(Force)  = 0.454E-07   g(Stress)= 0.888E-07

 Reset! Starting new Quasi-Newton update for ions

 writing wavefunctions

[...]

 eigenvalue-minimisations  :  2460
 total energy-change (2. order) : 0.2355573E-06  (-0.4372981E-07)
 number of electron     100.0000001 magnetization
 augmentation part       25.9035660 magnetization

[...]

 d Force = 0.2977877E-07[ 0.142E-07, 0.454E-07]  d Energy = 0.4196863E-06-0.390E-06
 d Force =-0.1837995E-01[-0.184E-01,-0.184E-01]  d Ewald  =-0.1011097E+00 0.827E-01

[...]

 retain information from N=  1 steps
 eigenvalues of (default step * inverse Hessian matrix)
  average eigenvalue of G=   0.2075
 eigenvalue spectrum of G is  0.2075

[...]

 d Force =-0.2250331E-09[ 0.411E-08,-0.456E-08]  d Energy =-0.7802064E-06 0.780E-06
 d Force = 0.2212465E-02[ 0.221E-02, 0.221E-02]  d Ewald  = 0.9466830E-01-0.925E-01

[...]

 d Force =-0.1338400E-07[-0.463E-07, 0.196E-07]  d Energy = 0.3167570E-06-0.330E-06
 d Force = 0.1146705E-01[ 0.115E-01, 0.115E-01]  d Ewald  =-0.5140083E-01 0.629E-01

[...]

 d Force = 0.2533665E-07[ 0.686E-09, 0.500E-07]  d Energy =-0.2527468E-06 0.278E-06
 d Force =-0.1043946E-01[-0.104E-01,-0.104E-01]  d Ewald  = 0.3924735E-01-0.497E-01

[...]

 d Force = 0.2085546E-08[ 0.194E-08, 0.223E-08]  d Energy =-0.1271947E-06 0.129E-06
 d Force = 0.1484507E-03[ 0.148E-03, 0.148E-03]  d Ewald  = 0.4487422E-01-0.447E-01

[...]

 d Force = 0.5145067E-08[-0.122E-07, 0.225E-07]  d Energy = 0.1109511E-06-0.106E-06
 d Force = 0.8848485E-02[ 0.885E-02, 0.885E-02]  d Ewald  =-0.1503394E-01 0.239E-01

[...]

 d Force =-0.4859376E-07[-0.737E-07,-0.235E-07]  d Energy =-0.9585710E-07 0.473E-07
 d Force = 0.1669722E-01[ 0.167E-01, 0.167E-01]  d Ewald  = 0.3193002E-01-0.152E-01

[...]

 d Force = 0.2104248E-07[-0.118E-06, 0.160E-06]  d Energy = 0.6162736E-07-0.406E-07
 d Force =-0.3573216E-01[-0.357E-01,-0.357E-01]  d Ewald  =-0.4069850E-01 0.497E-02

[...]

 d Force = 0.9312086E-08[ 0.926E-08, 0.936E-08]  d Energy = 0.6748996E-07-0.582E-07
 d Force = 0.2818561E-02[ 0.282E-02, 0.282E-02]  d Ewald  =-0.9813432E-02 0.126E-01

[...]

 d Force = 0.2843470E-08[ 0.175E-08, 0.394E-08]  d Energy = 0.2532215E-07-0.225E-07
 d Force = 0.1059479E-02[ 0.106E-02, 0.106E-02]  d Ewald  =-0.9642163E-02 0.107E-01

[...]

 d Force =-0.4840262E-06[-0.107E-05, 0.101E-06]  d Energy =-0.2663892E-06-0.218E-06
 d Force = 0.5625240E-01[ 0.562E-01, 0.563E-01]  d Ewald  =-0.3268765E-01 0.889E-01

[...]

 d Force = 0.4977455E-06[ 0.250E-06, 0.745E-06]  d Energy = 0.3612658E-06 0.136E-06
 d Force =-0.3955517E-01[-0.396E-01,-0.396E-01]  d Ewald  = 0.1978048E-02-0.415E-01

[...]

 d Force = 0.1226332E-07[ 0.640E-08, 0.181E-07]  d Energy =-0.3843161E-07 0.507E-07
 d Force =-0.3373934E-02[-0.337E-02,-0.337E-02]  d Ewald  = 0.4010985E-01-0.435E-01

[...]

 d Force = 0.5618000E-08[-0.315E-08, 0.144E-07]  d Energy =-0.4823960E-07 0.539E-07
 d Force =-0.6696498E-02[-0.670E-02,-0.670E-02]  d Ewald  = 0.6656673E-03-0.736E-02

[...]

 d Force =-0.6332670E-09[-0.300E-08, 0.173E-08]  d Energy = 0.2917841E-07-0.298E-07
 d Force = 0.2004519E-02[ 0.200E-02, 0.200E-02]  d Ewald  = 0.1421412E-02 0.583E-03

[...]

 d Force =-0.4581909E-09[-0.412E-08, 0.320E-08]  d Energy = 0.5633410E-08-0.609E-08
 d Force =-0.2322218E-02[-0.232E-02,-0.232E-02]  d Ewald  =-0.4987423E-02 0.267E-02

[...]

 d Force =-0.4294568E-08[-0.195E-08,-0.664E-08]  d Energy =-0.1276931E-07 0.847E-08
 d Force =-0.3749491E-02[-0.375E-02,-0.375E-02]  d Ewald  =-0.2795536E-01 0.242E-01

[...]

 d Force =-0.2622100E-07[-0.445E-07,-0.791E-08]  d Energy = 0.3555542E-06-0.382E-06
 d Force =-0.1583640E-01[-0.158E-01,-0.158E-01]  d Ewald  =-0.5934662E-01 0.435E-01

[...]

 d Force =-0.3564337E-08[-0.139E-07, 0.679E-08]  d Energy = 0.1410517E-06-0.145E-06
 d Force = 0.7353708E-02[ 0.735E-02, 0.735E-02]  d Ewald  =-0.4115235E-03 0.777E-02

[...]

 d Force =-0.2743141E-09[-0.690E-09, 0.142E-09]  d Energy =-0.1268727E-06 0.127E-06
 d Force =-0.1489751E-02[-0.149E-02,-0.149E-02]  d Ewald  = 0.6887394E-02-0.838E-02

[...]

 d Force =-0.3067285E-08[-0.791E-08, 0.178E-08]  d Energy =-0.1680201E-07 0.137E-07
 d Force = 0.1876039E-02[ 0.188E-02, 0.188E-02]  d Ewald  = 0.3074754E-03 0.157E-02

[...]

 d Force =-0.8519978E-09[-0.178E-08, 0.734E-10]  d Energy = 0.4002322E-07-0.409E-07
 d Force = 0.1968541E-03[ 0.197E-03, 0.197E-03]  d Ewald  = 0.3539044E-02-0.334E-02

[...]

 d Force = 0.7720467E-08[ 0.734E-08, 0.810E-08]  d Energy = 0.2067809E-06-0.199E-06
 d Force =-0.6090462E-02[-0.609E-02,-0.609E-02]  d Ewald  =-0.3560934E-01 0.295E-01

[...]

 d Force =-0.4109341E-08[-0.457E-08,-0.365E-08]  d Energy =-0.2398046E-06 0.236E-06
 d Force =-0.2164925E-02[-0.216E-02,-0.216E-02]  d Ewald  = 0.1911863E-01-0.213E-01

[...]

 d Force = 0.1419252E-07[ 0.671E-08, 0.217E-07]  d Energy =-0.3326022E-07 0.475E-07
 d Force =-0.6519333E-02[-0.652E-02,-0.652E-02]  d Ewald  =-0.3484252E-02-0.304E-02

[...]

 d Force =-0.8740717E-09[-0.108E-08,-0.672E-09]  d Energy =-0.2453817E-08 0.158E-08
 d Force = 0.9030053E-03[ 0.903E-03, 0.903E-03]  d Ewald  = 0.1308476E-01-0.122E-01

[...]

 d Force =-0.2103886E-09[-0.105E-08, 0.625E-09]  d Energy = 0.3800596E-07-0.382E-07
 d Force =-0.4840398E-03[-0.484E-03,-0.484E-03]  d Ewald  =-0.8309781E-02 0.783E-02

[...]

 d Force = 0.1651888E-08[ 0.484E-10, 0.326E-08]  d Energy =-0.1132248E-06 0.115E-06
 d Force = 0.3438191E-03[ 0.344E-03, 0.344E-03]  d Ewald  = 0.1693479E-01-0.166E-01

[...]

 d Force =-0.4005952E-08[-0.255E-07, 0.175E-07]  d Energy =-0.2921297E-08-0.108E-08
 d Force = 0.1190175E-01[ 0.119E-01, 0.119E-01]  d Ewald  = 0.1087830E-01 0.102E-02

[...]

 writing wavefunctions

[...]

 eigenvalue-minimisations  :  1488
 total energy-change (2. order) : 0.2305023E-07  (-0.1345109E-06)
 number of electron     100.0000001 magnetization
 augmentation part       25.9034877 magnetization

[...]

--------------------------------------- Iteration     38(   3)  ---------------------------------------

 BZINTS: Fermi energy:  1.941256;100.000000 electrons
         Band energy:***********;  BLOECHL correction:  0.000000

 eigenvalue-minimisations  :  1236
 total energy-change (2. order) :-0.4729372E-10  (-0.6282800E-09)
 number of electron     100.0000001 magnetization
 augmentation part       25.9034835 magnetization

 Free energy of the ion-electron system (eV)
  alpha Z        PSCENC =       457.83878339
  Ewald energy   TEWEN  =     -7703.21364746
  -Hartree energ DENC   =     -2426.16331203
  -exchange      EXHF   =       767.04486127
  -V(xc)+E(xc)   XCENC  =       168.67993817
  PAW double counting   =     13705.62785097   -13584.14263650
  entropy T*S    EENTRO =         0.00000000
  eigenvalues    EBANDS =     -1475.55246536
  atomic energy  EATOM  =      9926.69705820
  Solvation  Ediel_sol  =         0.00000000
  free energy    TOTEN  =      -163.18356934 eV

  energy without entropy =     -163.18356934  energy(sigma->0) =     -163.18356934
  exchange ACFDT corr.  =        -0.00000000  see jH, gK, PRB 81, 115126

 average (electrostatic) potential at core
  the test charge radii are     0.7215  0.9339  1.0856
  (the norm of the test charge is              1.0000)
       1 -53.8234       2 -53.8234       3 -53.8234       4 -53.8234       5 -53.8234
       6 -53.8234       7 -53.8234       8 -53.8234       9 -34.7275      10 -34.7275
      11 -90.0693      12 -90.0693

 E-fermi :   1.9413     XC(G=0):  -5.5792     alpha+bet :-12.2676

[...]

 k-point    14 :       0.5000    0.5000    0.5000
  band No.  band energies     occupation
      1     -44.4717      2.00000
      2     -44.4717      2.00000
      3     -44.4619      2.00000
      4     -44.4619      2.00000
      5     -44.3895      2.00000
      6     -44.3895      2.00000
      7     -24.0306      2.00000
      8     -24.0306      2.00000
      9     -24.0264      2.00000
     10     -24.0264      2.00000
     11     -23.8622      2.00000
     12     -23.8622      2.00000
     13     -23.8321      2.00000
     14     -23.8321      2.00000
     15     -23.8230      2.00000
     16     -23.8230      2.00000
     17     -20.9269      2.00000
     18     -20.9269      2.00000
     19     -19.7840      2.00000
     20     -19.7840      2.00000
     21     -19.3554      2.00000
     22     -19.3554      2.00000
     23     -19.2015      2.00000
     24     -19.2015      2.00000
     25      -9.0770      2.00000
     26      -9.0769      2.00000
     27      -4.8853      2.00000
     28      -4.8853      2.00000
     29      -4.4323      2.00000
     30      -4.4323      2.00000
     31      -3.9366      2.00000
     32      -3.9366      2.00000
     33      -3.5458      2.00000
     34      -3.5458      2.00000
     35      -3.1185      2.00000
     36      -3.1185      2.00000
     37      -2.9399      2.00000
     38      -2.9399      2.00000
     39      -2.5399      2.00000
     40      -2.5399      2.00000
     41      -2.2114      2.00000
     42      -2.2114      2.00000
     43      -0.6547      2.00000
     44      -0.6547      2.00000
     45      -0.1496      2.00000
     46      -0.1496      2.00000
     47      -0.0639      2.00000
     48      -0.0639      2.00000
     49       0.3553      2.00000
     50       0.3553      2.00000
     51      10.0034      0.00000
     52      10.0035      0.00000
     53      10.0506      0.00000
     54      10.0506      0.00000
     55      10.2409      0.00000
     56      10.2409      0.00000
     57      11.9715      0.00000
     58      11.9715      0.00000
     59      12.1352      0.00000
     60      12.1352      0.00000

 soft charge-density along one line, spin component           1
         0         1         2         3         4         5         6         7         8         9
 total charge-density along one line

------------------------ aborting loop because EDIFF is reached ----------------------------------------

  FORCE on cell =-STRESS in cart. coord.  units (eV):
  Direction    XX          YY          ZZ          XY          YZ          ZX
  Alpha Z   457.83878   457.83878   457.83878
  Ewald   -2587.06742 -2565.00319 -2551.15528   -22.30222     0.00006    -0.00014
  Hartree   803.01143   809.53022   813.62182    -6.58894    -0.00000    -0.00000
  E(xc)    -207.31539  -207.40473  -207.46082     0.09031    -0.00000    -0.00000
  Local     -72.47674   -98.94530  -115.55839    26.75370    -0.00009    -0.00003
  n-local   806.09269   806.39816   807.34909    -0.87295     0.10910     0.03285
  augment   333.34015   333.02469   332.82688     0.31888     0.00121     0.00079
  Kinetic  1637.17200  1636.55756  1635.60251     1.73393    -0.35202    -0.30335
  Fock    -1170.78406 -1172.11758 -1172.75215     1.05785    -0.00758    -0.08626
  Total       0.00082     0.00083     0.00084    -0.00002     0.00000     0.00000
  in kB       0.00900     0.00917     0.00928    -0.00017     0.00001     0.00001

 VOLUME and BASIS-vectors are now :
  energy-cutoff  :      950.00
  volume of cell :      145.07
      direct lattice vectors                 reciprocal lattice vectors
     6.725197047 -0.022327772  0.000001101     0.148452729 -0.072823650  0.140181208
     2.961889379  6.037879194 -0.000001142     0.000548948  0.165351807  0.140181120
    -4.843543434 -3.007774528  3.566812767    -0.000000046  0.000000075  0.280362349

  length of vectors
     6.725234112  6.725234112  6.725234116     0.216777000  0.216777000  0.280362349

 FORCES acting on ions
    electron-ion (+dipol)            ewald-force                    non-local-force                 convergence-correction
   -.792E+02 -.106E+02 -.995E+02   0.904E+02 0.132E+02 0.113E+03   -.762E+01 -.178E+01 -.902E+01   0.253E-03 -.179E-04 0.347E-03
   -.446E+02 -.663E+02 0.995E+02   0.519E+02 0.752E+02 -.113E+03   -.497E+01 -.604E+01 0.902E+01   0.963E-04 0.235E-03 -.347E-03
   -.114E+03 0.461E+02 0.328E+02   0.131E+03 -.515E+02 -.365E+02   -.111E+02 0.375E+01 0.251E+01   0.358E-03 -.186E-03 -.149E-03
   -.940E+01 -.123E+03 -.328E+02   0.117E+02 0.140E+03 0.365E+02   -.154E+01 -.116E+02 -.251E+01   -.796E-05 0.403E-03 0.149E-03
   0.792E+02 0.106E+02 0.995E+02   -.904E+02 -.132E+02 -.113E+03   0.762E+01 0.178E+01 0.902E+01   -.253E-03 0.179E-04 -.347E-03
   0.446E+02 0.663E+02 -.995E+02   -.519E+02 -.752E+02 0.113E+03   0.497E+01 0.604E+01 -.902E+01   -.963E-04 -.235E-03 0.347E-03
   0.114E+03 -.461E+02 -.328E+02   -.131E+03 0.515E+02 0.365E+02   0.111E+02 -.375E+01 -.251E+01   -.358E-03 0.186E-03 0.149E-03
   0.940E+01 0.123E+03 0.328E+02   -.117E+02 -.140E+03 -.365E+02   0.154E+01 0.116E+02 0.251E+01   0.796E-05 -.403E-03 -.149E-03
   -.752E-04 -.119E-04 -.433E-04   0.256E-03 -.967E-04 0.103E-04   0.104E-16 0.147E-16 0.434E-17   -.136E-09 0.221E-09 0.325E-10
   0.752E-04 0.119E-04 0.433E-04   -.754E-04 -.239E-04 0.144E-03   0.000E+00 -.607E-17 -.607E-17   -.667E-10 0.181E-10 -.233E-09
   -.756E-05 -.399E-05 -.528E-05   -.601E-04 -.116E-03 -.305E-04   0.694E-17 -.694E-17 0.694E-17   0.121E-12 -.372E-10 -.600E-10
   0.756E-05 0.399E-05 0.528E-05   0.794E-04 0.816E-04 -.697E-04   0.139E-16 -.278E-16 0.000E+00   -.233E-10 0.321E-10 -.908E-10
   -.458E-03 -.119E-03 0.723E-03   0.627E-13 0.633E-14 0.721E-14   0.669E-14 0.175E-14 0.449E-15   -.184E-09 0.238E-09 -.489E-09

 POSITION                                       TOTAL-FORCE (eV/Angst)
      2.65062      0.13403      2.26769         0.000027      0.000033     -0.000009
     -2.60732     -2.20643      3.08253         0.000042      0.000009      0.000009
      4.65026      2.31769      2.28235         0.000029      0.000029      0.000014
      0.23659     -1.38232      3.06787         0.000039      0.000013     -0.000014
      2.19292      2.87375      1.29913        -0.000027     -0.000033      0.000009
      7.45086      5.21421      0.48428        -0.000042     -0.000009     -0.000009
      0.19328      0.69008      1.28446        -0.000029     -0.000029     -0.000014
      4.60696      4.39009      0.49895        -0.000039     -0.000013      0.000014
      1.68130     -0.00558      0.89170         0.000000     -0.000000     -0.000000
      3.16224      3.01336      2.67511        -0.000000     -0.000000      0.000000
      6.52484      3.00219      0.89170         0.000000     -0.000000     -0.000000
     -1.68130      0.00558      2.67511         0.000000      0.000000      0.000000
    total drift:                               -0.000458     -0.000119      0.000723

  FREE ENERGIE OF THE ION-ELECTRON SYSTEM (eV)
  free  energy   TOTEN  =      -163.18356934 eV

  energy  without entropy=     -163.18356934  energy(sigma->0) =     -163.18356934

 d Force = 0.7249411E-08[-0.663E-09, 0.152E-07]  d Energy = 0.8729330E-08-0.148E-08
 d Force =-0.7043880E-02[-0.704E-02,-0.704E-02]  d Ewald  =-0.6142940E-02-0.901E-03

 Quasi-Newton relaxation of ions (Broydens 2nd method)
  g(Force)  = 0.739E-09   g(Stress)= 0.828E-08

 retain information from N=  2 steps
 eigenvalues of (default step * inverse Hessian matrix)
  average eigenvalue of G=   1.6352
 eigenvalue spectrum of G is  0.0461  3.2244

 reached required accuracy - stopping structural energy minimisation
 writing wavefunctions