 vasp.5.4.4.18Apr17-6-g9f103f2a35 (build Apr 27 2017 15:58:20) complex

 executed on       CrayXC-Intel16 date 2020.06.01  09:31:57

 INCAR:
 POTCAR:    PAW_PBE O 08Apr2002
 POTCAR:    PAW_PBE V_pv 07Sep2000
 POTCAR:    PAW_PBE Bi_d 06Sep2000

 POTCAR:    PAW_PBE O 08Apr2002
   VRHFIN =O: s2p4

   TITEL  = PAW_PBE O 08Apr2002
   POMASS =   16.000; ZVAL   =    6.000    mass and valenz
   ENMAX  =  400.000; ENMIN  =  300.000 eV

 POTCAR:    PAW_PBE V_pv 07Sep2000
   VRHFIN =V: p6 d4 s1

   TITEL  = PAW_PBE V_pv 07Sep2000
   POMASS =   50.941; ZVAL   =   11.000    mass and valenz
   ENMAX  =  263.673; ENMIN  =  197.755 eV

 POTCAR:    PAW_PBE Bi_d 06Sep2000
   VRHFIN =Bi:

   TITEL  = PAW_PBE Bi_d 06Sep2000
   POMASS =  208.980; ZVAL   =   15.000    mass and valenz
   ENMAX  =  242.839; ENMIN  =  182.129 eV

 WARNING: PSMAXN for non-local potential too small
          PSMAXN should be >   15.7905836300310       NTYP=           3

  PAW_PBE O 08Apr2002                   :
  PAW_PBE V_pv 07Sep2000                :
  PAW_PBE Bi_d 06Sep2000                :

 POSCAR: New structure
  positions in direct lattice
  velocities in cartesian coordinates
 exchange correlation table for  LEXCH =       14
   RHO(1)=    0.500       N(1)  =     2000
   RHO(2)=  100.500       N(2)  =     4000

 ion  position               nearest neighbor table
   1  0.299  0.719  0.637-   9 1.74  12 2.29  11 2.33
   2  0.933  0.827  0.885-  10 1.65  12 2.49  11 2.63
   3  0.781  0.201  0.863-   9 1.74  12 2.29  11 2.33
   4  0.673  0.567  0.615-  10 1.65  12 2.49  11 2.63
   5  0.701  0.281  0.363-  10 1.74  11 2.29  12 2.33
   6  0.067  0.173  0.115-   9 1.65  11 2.49  12 2.63
   7  0.219  0.799  0.137-  10 1.74  11 2.29  12 2.33
   8  0.327  0.433  0.385-   9 1.65  11 2.49  12 2.63
   9  0.119  0.381  0.750-   6 1.65   8 1.65   3 1.74   1 1.74
  10  0.881  0.619  0.250-   2 1.65   4 1.65   5 1.74   7 1.74
  11  0.615  0.885  0.750-   7 2.29   5 2.29   3 2.33   1 2.33   8 2.49   6 2.49   4 2.63   2 2.63
                            12 3.69  12 3.69
  12  0.385  0.115  0.250-   1 2.29   3 2.29   5 2.33   7 2.33   4 2.49   2 2.49   6 2.63   8 2.63
                            11 3.69  11 3.69

  LATTYP: Found a base centered monoclinic cell.
 ALAT       =     7.1108576388
 B/A-ratio  =     1.6188005399
 C/A-ratio  =     2.5669051304
 COS(beta)  =    -0.5152239205

  Lattice vectors:

 A1 = (  -3.0181737473,   6.0545571262,   0.0128828672)
 A2 = (   6.7651247354,  -0.0110489746,   0.0128828672)
 A3 = (  -9.4221989706, -15.1971927223,  -3.6654804805)

Analysis of symmetry for initial positions (statically):
 Subroutine PRICEL returns:
 Original cell was already a primitive cell.

 Routine SETGRP: Setting up the symmetry group for a
 base centered monoclinic supercell.

 Subroutine GETGRP returns: Found  4 space group operations
 (whereof  2 operations were pure point group operations)
 out of a pool of  4 trial point group operations.

The static configuration has the point symmetry S_2 .
 The point group associated with its full space group is C_2h.

Analysis of symmetry for dynamics (positions and initial velocities):
 Subroutine PRICEL returns:
 Original cell was already a primitive cell.

 Routine SETGRP: Setting up the symmetry group for a
 base centered monoclinic supercell.

 Subroutine GETGRP returns: Found  4 space group operations
 (whereof  2 operations were pure point group operations)
 out of a pool of  4 trial point group operations.

The dynamic configuration has the point symmetry S_2 .
 The point group associated with its full space group is C_2h.

 Subroutine INISYM returns: Found  4 space group operations
 (whereof  2 operations are pure point group operations),
 and found     1 'primitive' translations

 KPOINTS: Automatic generation

Automatic generation of k-mesh.
Space group operators:
 irot       det(A)        alpha          n_x          n_y          n_z        tau_x        tau_y        tau_z
    1     1.000000     0.000000     1.000000     0.000000     0.000000     0.000000     0.000000     0.000000
    2    -1.000000     0.000000     1.000000     0.000000     0.000000     0.000000     0.000000     0.000000
    3     1.000000   180.000000     0.849904    -0.526937     0.000000    -0.500000    -0.500000    -0.500000
    4    -1.000000   180.000000     0.849904    -0.526937     0.000000    -0.500000    -0.500000    -0.500000

 Subroutine IBZKPT returns following result:

 Found     24 irreducible k-points:

 Following reciprocal coordinates:
            Coordinates               Weight
  0.000000  0.000000  0.000000      1.000000
  0.250000  0.000000  0.000000      4.000000
  0.500000  0.000000  0.000000      2.000000
  0.250000  0.250000  0.000000      2.000000
  0.500000  0.250000  0.000000      4.000000
 -0.250000  0.250000 -0.000000      2.000000
  0.500000  0.500000  0.000000      1.000000
 -0.000000  0.000000  0.250000      2.000000
  0.250000  0.000000  0.250000      4.000000
  0.500000 -0.000000  0.250000      4.000000
 -0.250000 -0.000000  0.250000      4.000000
  0.250000  0.250000  0.250000      2.000000
  0.500000  0.250000  0.250000      4.000000
 -0.250000  0.250000  0.250000      4.000000
  0.500000  0.500000  0.250000      2.000000
 -0.250000  0.500000  0.250000      4.000000
 -0.250000 -0.250000  0.250000      2.000000
 -0.000000  0.000000  0.500000      1.000000
  0.250000  0.000000  0.500000      4.000000
  0.500000  0.000000  0.500000      2.000000
  0.250000  0.250000  0.500000      2.000000
  0.500000  0.250000  0.500000      4.000000
 -0.250000  0.250000  0.500000      2.000000
  0.500000  0.500000  0.500000      1.000000

 Following cartesian coordinates:
            Coordinates               Weight
  0.000000  0.000000  0.000000      1.000000
  0.037053  0.018547 -0.035731      4.000000
  0.074105  0.037093 -0.071463      2.000000
  0.037188  0.059981 -0.071463      2.000000
  0.074241  0.078528 -0.107194      4.000000
 -0.036917  0.022888 -0.000000      2.000000
  0.074377  0.119963 -0.142926      1.000000
 -0.000133 -0.000214  0.069431      2.000000
  0.036920  0.018333  0.033700      4.000000
  0.073973  0.036879 -0.002032      4.000000
 -0.037185 -0.018760  0.105163      4.000000
  0.037056  0.059768 -0.002032      2.000000
  0.074108  0.078314 -0.037763      4.000000
 -0.037049  0.022674  0.069431      4.000000
  0.074244  0.119749 -0.073495      2.000000
 -0.036914  0.064109  0.033700      4.000000
 -0.037321 -0.060195  0.140894      2.000000
 -0.000265 -0.000428  0.138862      1.000000
  0.036787  0.018119  0.103131      4.000000
  0.073840  0.036666  0.067399      2.000000
  0.036923  0.059554  0.067399      2.000000
  0.073976  0.078100  0.031668      4.000000
 -0.037182  0.022461  0.138862      2.000000
  0.074111  0.119535 -0.004063      1.000000

 TETIRR: Found     96 inequivalent tetrahedra from      384

 Subroutine IBZKPT_HF returns following result:

 Found     64 k-points in 1st BZ
 the following     64 k-points will be used (e.g. in the exchange kernel)
 Following reciprocal coordinates:   # in IRBZ
  0.000000  0.000000  0.000000    0.01562500   1 t-inv F
  0.250000  0.000000  0.000000    0.01562500   2 t-inv F
  0.500000  0.000000  0.000000    0.01562500   3 t-inv F
  0.250000  0.250000  0.000000    0.01562500   4 t-inv F
  0.500000  0.250000  0.000000    0.01562500   5 t-inv F
 -0.250000  0.250000 -0.000000    0.01562500   6 t-inv F
  0.500000  0.500000  0.000000    0.01562500   7 t-inv F
 -0.000000  0.000000  0.250000    0.01562500   8 t-inv F
  0.250000  0.000000  0.250000    0.01562500   9 t-inv F
  0.500000 -0.000000  0.250000    0.01562500  10 t-inv F
 -0.250000 -0.000000  0.250000    0.01562500  11 t-inv F
  0.250000  0.250000  0.250000    0.01562500  12 t-inv F
  0.500000  0.250000  0.250000    0.01562500  13 t-inv F
 -0.250000  0.250000  0.250000    0.01562500  14 t-inv F
  0.500000  0.500000  0.250000    0.01562500  15 t-inv F
 -0.250000  0.500000  0.250000    0.01562500  16 t-inv F
 -0.250000 -0.250000  0.250000    0.01562500  17 t-inv F
 -0.000000  0.000000  0.500000    0.01562500  18 t-inv F
  0.250000  0.000000  0.500000    0.01562500  19 t-inv F
  0.500000  0.000000  0.500000    0.01562500  20 t-inv F
  0.250000  0.250000  0.500000    0.01562500  21 t-inv F
  0.500000  0.250000  0.500000    0.01562500  22 t-inv F
 -0.250000  0.250000  0.500000    0.01562500  23 t-inv F
  0.500000  0.500000  0.500000    0.01562500  24 t-inv F
 -0.250000 -0.000000 -0.000000    0.01562500   2 t-inv F
 -0.000000 -0.250000 -0.000000    0.01562500   2 t-inv F
  0.000000  0.250000  0.000000    0.01562500   2 t-inv F
 -0.000000 -0.500000 -0.000000    0.01562500   3 t-inv F
 -0.250000 -0.250000  0.000000    0.01562500   4 t-inv F
 -0.500000 -0.250000 -0.000000    0.01562500   5 t-inv F
 -0.250000 -0.500000 -0.000000    0.01562500   5 t-inv F
  0.250000  0.500000  0.000000    0.01562500   5 t-inv F
  0.250000 -0.250000  0.000000    0.01562500   6 t-inv F
  0.000000  0.000000 -0.250000    0.01562500   8 t-inv F
 -0.250000 -0.000000 -0.250000    0.01562500   9 t-inv F
 -0.000000 -0.250000 -0.250000    0.01562500   9 t-inv F
  0.000000  0.250000  0.250000    0.01562500   9 t-inv F
 -0.500000  0.000000 -0.250000    0.01562500  10 t-inv F
  0.000000 -0.500000 -0.250000    0.01562500  10 t-inv F
 -0.000000  0.500000  0.250000    0.01562500  10 t-inv F
  0.250000  0.000000 -0.250000    0.01562500  11 t-inv F
  0.000000  0.250000 -0.250000    0.01562500  11 t-inv F
 -0.000000 -0.250000  0.250000    0.01562500  11 t-inv F
 -0.250000 -0.250000 -0.250000    0.01562500  12 t-inv F
 -0.500000 -0.250000 -0.250000    0.01562500  13 t-inv F
 -0.250000 -0.500000 -0.250000    0.01562500  13 t-inv F
  0.250000  0.500000  0.250000    0.01562500  13 t-inv F
  0.250000 -0.250000 -0.250000    0.01562500  14 t-inv F
 -0.250000  0.250000 -0.250000    0.01562500  14 t-inv F
  0.250000 -0.250000  0.250000    0.01562500  14 t-inv F
 -0.500000 -0.500000 -0.250000    0.01562500  15 t-inv F
  0.250000 -0.500000 -0.250000    0.01562500  16 t-inv F
 -0.500000  0.250000 -0.250000    0.01562500  16 t-inv F
  0.500000 -0.250000  0.250000    0.01562500  16 t-inv F
  0.250000  0.250000 -0.250000    0.01562500  17 t-inv F
 -0.250000 -0.000000 -0.500000    0.01562500  19 t-inv F
 -0.000000 -0.250000 -0.500000    0.01562500  19 t-inv F
  0.000000  0.250000  0.500000    0.01562500  19 t-inv F
 -0.000000 -0.500000 -0.500000    0.01562500  20 t-inv F
 -0.250000 -0.250000 -0.500000    0.01562500  21 t-inv F
 -0.500000 -0.250000 -0.500000    0.01562500  22 t-inv F
 -0.250000 -0.500000 -0.500000    0.01562500  22 t-inv F
  0.250000  0.500000  0.500000    0.01562500  22 t-inv F
  0.250000 -0.250000 -0.500000    0.01562500  23 t-inv F

 SYSTEM =  ZnO_Bulk
 POSCAR =  New structure

 Startparameter for this run:
   NWRITE =      2    write-flag & timer
   PREC   = accura    normal or accurate (medium, high low for compatibility)
   ISTART =      1    job   : 0-new  1-cont  2-samecut
   ICHARG =      0    charge: 1-file 2-atom 10-const
   ISPIN  =      1    spin polarized calculation?
   LNONCOLLINEAR =      F non collinear calculations
   LSORBIT =      F    spin-orbit coupling
[...]
    1        1.582   3.566   0.000   5.148
    2        1.596   3.515   0.000   5.111
    3        1.583   3.559   0.000   5.142
    4        1.596   3.516   0.000   5.112
    5        1.582   3.566   0.000   5.148
    6        1.596   3.515   0.000   5.111
    7        1.583   3.559   0.000   5.142
    8        1.596   3.516   0.000   5.112
    9        0.524   6.593   3.143  10.260
   10        0.524   6.593   3.143  10.260
   11        1.812   0.627  10.037  12.476
   12        1.812   0.627  10.037  12.476
tot         17.384  42.752  26.362  86.498

  FORCE on cell =-STRESS in cart. coord.  units (eV):
  Direction    XX          YY          ZZ          XY          YZ          ZX
  Alpha Z   450.71183   450.71183   450.71183
  Ewald   -2610.46379 -2571.99994 -2424.83595    38.73816    76.40841    47.37292
  Hartree   787.98471   814.17118   895.68046    26.37326    33.37521    20.69250
  E(xc)    -207.28067  -207.28918  -207.60027    -0.00857    -0.12182    -0.07553
  Local     -27.54974   -88.94497  -315.51176   -61.83313  -108.09915   -67.02105
  n-local   806.55882   806.48071   806.56614     0.15593     0.69775     0.32272
  augment   333.18002   332.74320   334.33514    -0.43993     0.54442     0.33816
  Kinetic  1637.15550  1634.61405  1636.86319    -3.14675    -1.10195    -0.32027
  Fock    -1170.54480 -1170.23440 -1176.20571     0.04760    -1.77036    -1.20939
  Total      -0.00162     0.00599     0.00306     0.00766    -0.00376    -0.00233
  in kB      -0.01758     0.06509     0.03331     0.08326    -0.04090    -0.02536

 VOLUME and BASIS-vectors are now :
  energy-cutoff  :      950.00
  volume of cell :      147.36
      direct lattice vectors                 reciprocal lattice vectors
     6.765124735 -0.011048975  0.012882867     0.148210272  0.074186375 -0.142925684
    -3.018173747  6.054557126  0.012882867     0.000542864  0.165739579 -0.142925684
     1.928296995  3.110176419  3.613949012    -0.000530269 -0.000855279  0.277724611

[...]

 FORCES acting on ions
    electron-ion (+dipol)            ewald-force                    non-local-force                 convergence-correction
   -.125E+02 -.734E+02 0.113E+02   0.116E+02 0.860E+02 -.128E+02   0.544E+00 -.862E+01 0.101E+01   0.284E-04 0.229E-04 -.158E-04
   0.136E+03 -.185E+02 0.132E+03   -.151E+03 0.214E+02 -.148E+03   0.104E+02 -.192E+01 0.111E+02   -.682E-04 0.628E-05 -.510E-04
   0.602E+02 0.438E+02 -.113E+02   -.719E+02 -.486E+02 0.128E+02   0.797E+01 0.335E+01 -.101E+01   -.788E-05 -.356E-04 0.158E-04
   0.770E+02 -.113E+03 -.132E+03   -.865E+02 0.126E+03 0.148E+03   0.634E+01 -.845E+01 -.111E+02   -.360E-04 0.583E-04 0.510E-04
   0.125E+02 0.734E+02 -.113E+02   -.116E+02 -.860E+02 0.128E+02   -.544E+00 0.862E+01 -.101E+01   -.284E-04 -.229E-04 0.158E-04
   -.136E+03 0.185E+02 -.132E+03   0.151E+03 -.214E+02 0.148E+03   -.104E+02 0.192E+01 -.111E+02   0.682E-04 -.628E-05 0.510E-04
   -.602E+02 -.438E+02 0.113E+02   0.719E+02 0.486E+02 -.128E+02   -.797E+01 -.335E+01 0.101E+01   0.788E-05 0.356E-04 -.158E-04
   -.770E+02 0.113E+03 0.132E+03   0.865E+02 -.126E+03 -.148E+03   -.634E+01 0.845E+01 0.111E+02   0.360E-04 -.583E-04 -.510E-04
   -.189E+02 0.117E+02 -.467E-10   0.174E+02 -.108E+02 -.104E-06   -.583E+00 0.361E+00 -.226E-12   0.128E-03 -.792E-04 0.589E-14
   0.189E+02 -.117E+02 0.408E-10   -.174E+02 0.108E+02 0.427E-05   0.583E+00 -.361E+00 0.226E-12   -.128E-03 0.792E-04 0.176E-13
   -.159E+03 0.985E+02 -.199E-08   0.169E+03 -.105E+03 -.289E-04   -.913E+01 0.566E+01 -.355E-11   0.162E-03 -.100E-03 0.689E-13
   0.159E+03 -.985E+02 0.201E-08   -.169E+03 0.105E+03 -.854E-05   0.913E+01 -.566E+01 0.355E-11   -.162E-03 0.100E-03 -.129E-12
   0.801E-03 -.329E-03 0.145E-03   0.000E+00 0.568E-13 0.449E-13   -.178E-14 -.266E-14 -.183E-14   0.385E-10 -.457E-10 -.157E-10

 POSITION                                       TOTAL-FORCE (eV/Angst)
      1.08233      6.32754      2.31388        -0.000014      0.000113     -0.000052
      5.52120      7.74811      3.22039        -0.000205     -0.000018     -0.000141
      6.34480      3.89284      3.13281        -0.000107     -0.000038      0.000052
      4.02808      5.33985      2.23918        -0.000075      0.000191      0.000141
      4.59291      2.82614      1.32584         0.000014     -0.000113      0.000052
      0.15405      1.40557      0.41933         0.000205      0.000018      0.000141
     -0.66955      5.26085      0.50690         0.000107      0.000038     -0.000052
      1.64717      3.81384      1.40053         0.000075     -0.000191     -0.000141
      1.09991      4.63900      2.71690        -0.000799      0.000495     -0.000000
      4.57534      4.51469      0.92281         0.000799     -0.000495      0.000000
      2.93659      7.68356      2.72979        -0.000568      0.000352     -0.000000
      2.73865      1.47012      0.90993         0.000568     -0.000352      0.000000
    total drift:                                0.000801     -0.000329      0.000145

  FREE ENERGIE OF THE ION-ELECTRON SYSTEM (eV)
  free  energy   TOTEN  =      -163.20295419 eV

  energy  without entropy=     -163.20295419  energy(sigma->0) =     -163.20295419

 Quasi-Newton relaxation of ions (Broydens 2nd method)
  g(Force)  = 0.143E-06   g(Stress)= 0.821E-06

 Reset! Starting new Quasi-Newton update for ions

 writing wavefunctions

[...]

 eigenvalue-minimisations  :  3216
 total energy-change (2. order) : 0.2183619E-05  (-0.1483277E-04)
 number of electron     100.0000001 magnetization
 augmentation part       25.9349952 magnetization

[...]

 d Force = 0.7288094E-09[-0.142E-06, 0.143E-06]  d Energy =-0.7656945E-06 0.766E-06
 d Force =-0.2807339E-02[-0.281E-02,-0.281E-02]  d Ewald  =-0.7841048E-01 0.756E-01

[...]

 retain information from N=  1 steps
 eigenvalues of (default step * inverse Hessian matrix)
  average eigenvalue of G=   0.3097
 eigenvalue spectrum of G is  0.3097

[...]

 d Force = 0.4667641E-07[-0.717E-07, 0.165E-06]  d Energy = 0.1480821E-06-0.101E-06
 d Force =-0.2083710E-01[-0.208E-01,-0.208E-01]  d Ewald  =-0.1671924E-02-0.192E-01

[...]

 d Force =-0.7554132E-07[-0.349E-06, 0.198E-06]  d Energy = 0.1419376E-06-0.217E-06
 d Force = 0.1795436E-01[ 0.180E-01, 0.180E-01]  d Ewald  =-0.1972615E-01 0.377E-01

[...]

 d Force = 0.8892649E-07[ 0.732E-07, 0.105E-06]  d Energy = 0.2989200E-06-0.210E-06
 d Force =-0.7087373E-02[-0.709E-02,-0.709E-02]  d Ewald  = 0.9679023E-01-0.104E+00

[...]

 d Force =-0.3029175E-06[-0.105E-05, 0.441E-06]  d Energy =-0.4777994E-06 0.175E-06
 d Force =-0.1425841E-01[-0.143E-01,-0.143E-01]  d Ewald  = 0.6043026E-01-0.747E-01

[...]

 writing wavefunctions

[...]

 eigenvalue-minimisations  :  4344
 total energy-change (2. order) :-0.2798224E-06  (-0.1365106E-06)
 number of electron     100.0000001 magnetization
 augmentation part       25.9349923 magnetization

[...]

--------------------------------------- Iteration      7(   6)  ---------------------------------------

[...]

 eigenvalue-minimisations  :  1924
 total energy-change (2. order) : 0.6913979E-08  (-0.2736213E-08)
 number of electron     100.0000001 magnetization
 augmentation part       25.9349211 magnetization

 Free energy of the ion-electron system (eV)
  alpha Z        PSCENC =       450.71983884
  Ewald energy   TEWEN  =     -7607.31026587
  -Hartree energ DENC   =     -2497.83612871
  -exchange      EXHF   =       767.09786614
  -V(xc)+E(xc)   XCENC  =       168.64310450
  PAW double counting   =     13778.98330734   -13657.70194313
  entropy T*S    EENTRO =         0.00000000
  eigenvalues    EBANDS =     -1492.49579133
  atomic energy  EATOM  =      9926.69705820
  Solvation  Ediel_sol  =         0.00000000
  free energy    TOTEN  =      -163.20295402 eV

  energy without entropy =     -163.20295402  energy(sigma->0) =     -163.20295402
  exchange ACFDT corr.  =        -0.00000000  see jH, gK, PRB 81, 115126

 average (electrostatic) potential at core
  the test charge radii are     0.7215  0.9339  1.0856
  (the norm of the test charge is              1.0000)
       1 -54.0577       2 -53.9831       3 -54.0577       4 -53.9831       5 -54.0577
       6 -53.9831       7 -54.0577       8 -53.9831       9 -34.8195      10 -34.8195
      11 -90.2298      12 -90.2298

 E-fermi :   1.6777     XC(G=0):  -5.5297     alpha+bet :-12.0768

[...]

 k-point    24 :       0.5000    0.5000    0.5000
  band No.  band energies     occupation
      1     -44.6722      2.00000
      2     -44.6722      2.00000
      3     -44.5180      2.00000
      4     -44.5180      2.00000
      5     -44.4913      2.00000
      6     -44.4913      2.00000
      7     -24.3094      2.00000
      8     -24.3094      2.00000
      9     -24.1250      2.00000
     10     -24.1250      2.00000
     11     -24.0767      2.00000
     12     -24.0767      2.00000
     13     -24.0111      2.00000
     14     -24.0111      2.00000
     15     -23.9830      2.00000
     16     -23.9830      2.00000
     17     -20.5640      2.00000
     18     -20.5640      2.00000
     19     -20.1337      2.00000
     20     -20.1337      2.00000
     21     -19.6693      2.00000
     22     -19.6693      2.00000
     23     -19.6280      2.00000
     24     -19.6280      2.00000
     25      -9.1558      2.00000
     26      -9.1558      2.00000
     27      -5.4959      2.00000
     28      -5.4959      2.00000
     29      -5.0861      2.00000
     30      -5.0861      2.00000
     31      -3.9920      2.00000
     32      -3.9920      2.00000
     33      -3.3624      2.00000
     34      -3.3624      2.00000
     35      -3.0989      2.00000
     36      -3.0989      2.00000
     37      -2.7812      2.00000
     38      -2.7812      2.00000
     39      -2.3920      2.00000
     40      -2.3920      2.00000
     41      -1.9623      2.00000
     42      -1.9623      2.00000
     43      -1.2727      2.00000
     44      -1.2727      2.00000
     45      -0.9384      2.00000
     46      -0.9384      2.00000
     47      -0.4504      2.00000
     48      -0.4504      2.00000
     49       1.2065      2.00000
     50       1.2065      2.00000
     51       9.6735      0.00000
     52       9.6735      0.00000
     53       9.7442      0.00000
     54       9.7442      0.00000
     55      10.0845      0.00000
     56      10.0845      0.00000
     57      10.7877      0.00000
     58      10.7877      0.00000
     59      11.4252      0.00000
     60      11.4252      0.00000

 soft charge-density along one line, spin component           1
         0         1         2         3         4         5         6         7         8         9
 total charge-density along one line

------------------------ aborting loop because EDIFF is reached ----------------------------------------

[...]

  FORCE on cell =-STRESS in cart. coord.  units (eV):
  Direction    XX          YY          ZZ          XY          YZ          ZX
  Alpha Z   450.71984   450.71984   450.71984
  Ewald   -2610.50635 -2572.03928 -2424.77843    38.74140    76.37578    47.35269
  Hartree   787.95625   814.15137   895.72668    26.38197    33.36031    20.68326
  E(xc)    -207.28103  -207.28950  -207.60057    -0.00854    -0.12181    -0.07552
  Local     -27.48846   -88.89499  -315.62290   -61.84451  -108.05151   -66.99151
  n-local   806.50112   806.42410   806.46073     0.06041     0.72415     0.31215
  augment   333.17947   332.74285   334.33500    -0.43973     0.54415     0.33799
  Kinetic  1637.15850  1634.61649  1636.86731    -3.14725    -1.10066    -0.31946
  Fock    -1170.48912 -1170.18133 -1176.10929     0.13204    -1.79100    -1.19716
  Total       0.00051    -0.00074    -0.00163    -0.00126     0.00230     0.00142
  in kB       0.00550    -0.00805    -0.01777    -0.01365     0.02496     0.01547

 VOLUME and BASIS-vectors are now :
  energy-cutoff  :      950.00
  volume of cell :      147.36
      direct lattice vectors                 reciprocal lattice vectors
     6.765123845 -0.010979516  0.012830219     0.148208414  0.074182309 -0.142927582
    -3.018111138  6.054587215  0.012830219     0.000540048  0.165736108 -0.142927582
     1.928300872  3.110182674  3.613794748    -0.000528108 -0.000851793  0.277732316

  length of vectors
     6.765144921  6.765144921  5.143062609     0.218853930  0.218853930  0.277734124

 FORCES acting on ions
    electron-ion (+dipol)            ewald-force                    non-local-force                 convergence-correction
   -.125E+02 -.734E+02 0.113E+02   0.116E+02 0.860E+02 -.127E+02   0.542E+00 -.862E+01 0.101E+01   -.138E-03 -.397E-04 0.102E-03
   0.136E+03 -.185E+02 0.132E+03   -.151E+03 0.214E+02 -.148E+03   0.104E+02 -.192E+01 0.111E+02   0.430E-03 -.147E-03 0.339E-03
   0.602E+02 0.438E+02 -.113E+02   -.718E+02 -.486E+02 0.127E+02   0.796E+01 0.335E+01 -.101E+01   -.257E-04 0.141E-03 -.102E-03
   0.770E+02 -.114E+03 -.132E+03   -.865E+02 0.126E+03 0.148E+03   0.634E+01 -.845E+01 -.111E+02   0.323E-03 -.320E-03 -.339E-03
   0.125E+02 0.734E+02 -.113E+02   -.116E+02 -.860E+02 0.127E+02   -.542E+00 0.862E+01 -.101E+01   0.138E-03 0.397E-04 -.102E-03
   -.136E+03 0.185E+02 -.132E+03   0.151E+03 -.214E+02 0.148E+03   -.104E+02 0.192E+01 -.111E+02   -.430E-03 0.147E-03 -.339E-03
   -.602E+02 -.438E+02 0.113E+02   0.718E+02 0.486E+02 -.127E+02   -.796E+01 -.335E+01 0.101E+01   0.257E-04 -.141E-03 0.102E-03
   -.770E+02 0.114E+03 0.132E+03   0.865E+02 -.126E+03 -.148E+03   -.634E+01 0.845E+01 0.111E+02   -.323E-03 0.320E-03 0.339E-03
   -.189E+02 0.117E+02 -.510E-10   0.174E+02 -.108E+02 -.101E-06   -.584E+00 0.362E+00 -.227E-12   -.327E-03 0.203E-03 0.124E-10
   0.189E+02 -.117E+02 0.432E-10   -.174E+02 0.108E+02 0.427E-05   0.584E+00 -.362E+00 0.227E-12   0.327E-03 -.203E-03 -.754E-11
   -.159E+03 0.986E+02 -.201E-08   0.169E+03 -.105E+03 -.289E-04   -.913E+01 0.566E+01 -.355E-11   0.686E-05 -.425E-05 -.108E-10
   0.159E+03 -.986E+02 0.200E-08   -.169E+03 0.105E+03 -.854E-05   0.913E+01 -.566E+01 0.355E-11   -.686E-05 0.425E-05 -.258E-10
   0.801E-03 -.329E-03 0.145E-03   0.000E+00 0.853E-13 -.123E-12   0.355E-14 0.000E+00 0.177E-14   -.155E-09 0.125E-09 -.256E-10

 POSITION                                       TOTAL-FORCE (eV/Angst)
      1.08238      6.32760      2.31373        -0.000049      0.000358     -0.000001
      5.52125      7.74820      3.22016         0.000026     -0.000051     -0.000056
      6.34480      3.89290      3.13262        -0.000342     -0.000115      0.000001
      4.02813      5.33992      2.23902         0.000057     -0.000001      0.000056
      4.59294      2.82619      1.32572         0.000049     -0.000358      0.000001
      0.15407      1.40559      0.41929        -0.000026      0.000051      0.000056
     -0.66949      5.26089      0.50684         0.000342      0.000115     -0.000001
      1.64719      3.81387      1.40044        -0.000057      0.000001     -0.000056
      1.09988      4.63906      2.71676         0.000030     -0.000018      0.000000
      4.57543      4.51473      0.92269        -0.000030      0.000018     -0.000000
      2.93662      7.68366      2.72959         0.000140     -0.000087      0.000000
      2.73870      1.47013      0.90986        -0.000140      0.000087     -0.000000
    total drift:                                0.000801     -0.000329      0.000145

  FREE ENERGIE OF THE ION-ELECTRON SYSTEM (eV)
  free  energy   TOTEN  =      -163.20295402 eV

  energy  without entropy=     -163.20295402  energy(sigma->0) =     -163.20295402

 d Force = 0.4643556E-06[-0.222E-07, 0.951E-06]  d Energy = 0.4915655E-06-0.272E-07
 d Force = 0.1167722E-01[ 0.117E-01, 0.117E-01]  d Ewald  =-0.3302744E-01 0.447E-01

 Quasi-Newton relaxation of ions (Broydens 2nd method)
  g(Force)  = 0.291E-07   g(Stress)= 0.853E-07

 retain information from N=  1 steps
 eigenvalues of (default step * inverse Hessian matrix)
  average eigenvalue of G=   0.1701
 eigenvalue spectrum of G is  0.1701

 reached required accuracy - stopping structural energy minimisation
 writing wavefunctions

 total charge

# of ion       s       p       d       tot
    1        1.582   3.566   0.000   5.148
    2        1.596   3.515   0.000   5.111
    3        1.583   3.559   0.000   5.142
    4        1.596   3.516   0.000   5.112
    5        1.582   3.566   0.000   5.148
    6        1.596   3.515   0.000   5.111
    7        1.583   3.559   0.000   5.142
    8        1.596   3.516   0.000   5.112
    9        0.524   6.593   3.143  10.260
   10        0.524   6.593   3.143  10.260
   11        1.812   0.627  10.037  12.476
   12        1.812   0.627  10.037  12.476
tot         17.384  42.753  26.362  86.498

 BZINTS: Fermi energy:  1.677667;100.000000 electrons
         Band energy:***********;  BLOECHL correction:  0.000000